s td 29 12 40
b 1 15 17 18
b 2 26 27
b 3 6 8 19
b 4 15 21 33
b 5 1 2 15 17 26 29 30 31 32 34 35 36
b 6 3 15 26 30 31
b 7 3 15 16 31
b 8 1 2 11 15 17 26 29 31 32 34 35 36
b 9 1 2 4 11 15 26 29 31 32 35 36
b 10 1 2 4 23 26 29 31 32 35 36
b 11 1 23 25 26 31 36
b 12 1 2 11 17 26 29 31 32 34 36 39
b 13 1 2 10 17 26 31 32 34 39
b 14 7 10 17 26 31 39
b 15 5 7 17 26 39
b 16 2 11 13 17 29 31 32 34 36 39
b 17 6 13 29 32 34 36 39
b 18 6 19 32 34 36 39
b 19 11 13 17 29 31 32 36 37 39
b 20 11 17 29 31 36 37 38 39
b 21 11 28 31 36 38 39
b 22 20 28 31 38 39
b 23 13 24 31 32
b 24 1 2 15 17 26 29 30 32 34 35 36 40
b 25 1 2 15 26 32 33 34 35 36 40
b 26 2 12 15 26 33 34 35 36 40
b 27 2 9 12 33 34 40
b 28 9 12 22 33 34
b 29 11 14 28 31 38
1 5
2 5
3 18
4 25
5 6
5 8
5 24
6 7
8 9
8 12
9 10
10 11
12 13
12 16
13 14
14 15
16 17
16 19
16 23
17 18
19 20
20 21
21 29
21 22
24 25
25 26
26 27
27 28
